(set-logic QF_UF)
(declare-fun A0 () Bool)
(declare-fun A1 () Bool)
(declare-fun A2 () Bool)
(declare-fun A3 () Bool)
(declare-fun A4 () Bool)
(declare-fun A5 () Bool)
(declare-fun A7 () Bool)
(declare-fun A8 () Bool)
(declare-fun A9 () Bool)
(declare-fun A10 () Bool)
(declare-fun A11 () Bool)
(declare-fun A13 () Bool)
(declare-fun A14 () Bool)
(declare-fun A15 () Bool)
(declare-fun A16 () Bool)
(declare-fun A17 () Bool)
(declare-fun A18 () Bool)
(declare-fun A19 () Bool)
(declare-fun A20 () Bool)
(declare-fun A21 () Bool)
(declare-fun A22 () Bool)
(declare-fun A23 () Bool)
(declare-fun A24 () Bool)
(declare-fun A25 () Bool)
(declare-fun A26 () Bool)
(declare-fun A27 () Bool)
(declare-fun A28 () Bool)
(declare-fun A29 () Bool)
(assert (let ((.def_0 (and A19 A15))) (let ((.def_1 (not A17))) (let ((.def_2 (and A26 .def_1))) (let ((.def_3 (not .def_2))) (let ((.def_4 (and .def_3 .def_0))) (let ((.def_5 (not A3))) (let ((.def_6 (and A4 .def_5))) (let ((.def_7 (not .def_6))) (let ((.def_8 (not A1))) (let ((.def_9 (or .def_8 A0))) (let ((.def_10 (not .def_9))) (let ((.def_11 (and .def_10 .def_7))) (let ((.def_12 (not .def_11))) (let ((.def_13 (or .def_12 .def_4))) (let ((.def_14 (not A2))) (let ((.def_15 (= A5 .def_14))) (let ((.def_16 (not A5))) (let ((.def_17 (= .def_16 A19))) (let ((.def_18 (and .def_17 .def_15))) (let ((.def_19 (not A7))) (let ((.def_20 (and A11 .def_19))) (let ((.def_21 (not A9))) (let ((.def_22 (and .def_21 .def_1))) (let ((.def_23 (not .def_22))) (let ((.def_24 (and .def_23 .def_20))) (let ((.def_25 (not .def_24))) (let ((.def_26 (= .def_25 .def_18))) (let ((.def_27 (not .def_26))) (let ((.def_28 (or .def_27 .def_13))) (let ((.def_29 (not .def_28))) (let ((.def_30 (not A23))) (let ((.def_31 (or A27 .def_30))) (let ((.def_32 (not A20))) (let ((.def_33 (and .def_32 A10))) (let ((.def_34 (and .def_33 .def_31))) (let ((.def_35 (not .def_34))) (let ((.def_36 (not A19))) (let ((.def_37 (or .def_36 A1))) (let ((.def_38 (not A0))) (let ((.def_39 (or .def_38 A11))) (let ((.def_40 (and .def_39 .def_37))) (let ((.def_41 (and .def_40 .def_35))) (let ((.def_42 (not A21))) (let ((.def_43 (not A13))) (let ((.def_44 (and .def_43 .def_42))) (let ((.def_45 (and A22 A28))) (let ((.def_46 (not .def_45))) (let ((.def_47 (or .def_46 .def_44))) (let ((.def_48 (not .def_47))) (let ((.def_49 (not A8))) (let ((.def_50 (or .def_49 .def_21))) (let ((.def_51 (not .def_50))) (let ((.def_52 (and .def_19 A7))) (let ((.def_53 (and .def_52 .def_51))) (let ((.def_54 (or .def_53 .def_48))) (let ((.def_55 (not .def_54))) (let ((.def_56 (or .def_55 .def_41))) (let ((.def_57 (not .def_56))) (let ((.def_58 (and .def_57 .def_29))) (let ((.def_59 (not A24))) (let ((.def_60 (and .def_43 .def_59))) (let ((.def_61 (not .def_60))) (let ((.def_62 (and A13 A5))) (let ((.def_63 (not .def_62))) (let ((.def_64 (and .def_63 .def_61))) (let ((.def_65 (or A29 A13))) (let ((.def_66 (not A25))) (let ((.def_67 (or A15 .def_66))) (let ((.def_68 (and .def_67 .def_65))) (let ((.def_69 (and .def_68 .def_64))) (let ((.def_70 (not .def_69))) (let ((.def_71 (= A20 .def_30))) (let ((.def_72 (not .def_71))) (let ((.def_73 (and A8 A18))) (let ((.def_74 (and .def_73 .def_72))) (let ((.def_75 (not .def_74))) (let ((.def_76 (not A26))) (let ((.def_77 (not A11))) (let ((.def_78 (or .def_77 .def_76))) (let ((.def_79 (not .def_78))) (let ((.def_80 (not A10))) (let ((.def_81 (or A24 .def_80))) (let ((.def_82 (not .def_81))) (let ((.def_83 (or .def_82 .def_79))) (let ((.def_84 (not .def_83))) (let ((.def_85 (or .def_84 .def_75))) (let ((.def_86 (not .def_85))) (let ((.def_87 (or .def_86 .def_70))) (let ((.def_88 (not .def_87))) (let ((.def_89 (= A2 .def_43))) (let ((.def_90 (or .def_32 A4))) (let ((.def_91 (not .def_90))) (let ((.def_92 (or .def_91 .def_89))) (let ((.def_93 (or A23 A5))) (let ((.def_94 (not .def_93))) (let ((.def_95 (or .def_19 A29))) (let ((.def_96 (not .def_95))) (let ((.def_97 (and .def_96 .def_94))) (let ((.def_98 (not .def_97))) (let ((.def_99 (and .def_98 .def_92))) (let ((.def_100 (and A17 A27))) (let ((.def_101 (not .def_100))) (let ((.def_102 (not A27))) (let ((.def_103 (and .def_59 .def_102))) (let ((.def_104 (or .def_103 .def_101))) (let ((.def_105 (not A28))) (let ((.def_106 (and A14 .def_105))) (let ((.def_107 (not .def_106))) (let ((.def_108 (and A16 A1))) (let ((.def_109 (= .def_108 .def_107))) (let ((.def_110 (not .def_109))) (let ((.def_111 (or .def_110 .def_104))) (let ((.def_112 (= .def_111 .def_99))) (let ((.def_113 (not .def_112))) (let ((.def_114 (or .def_113 .def_88))) (let ((.def_115 (or .def_114 .def_58))) .def_115)))))))))))))))))))))))))))))))))))))))))))))))))))))))))))))))))))))))))))))))))))))))))))))))))))))))))))))))))))))
(check-sat)
